\* Problem: Unknown *\

Maximize
 obj: 100 r1_m + 990 r1_d1 + 980 r1_d2

Subject To

r1: r1_d1 + r1_d2 <= 10
r2: r1_m <= 100
r3: r1_d1 <= 10
r4: - r1_d1 + 0.5 d1_p = 0

r5: r1_d2 <= 10
r6: - r1_d2 + d2_p = 0


End
